     Program PWSCF v.6.3MaX starts on 24Jul2018 at 12:12:28

     Current dimensions of program PWSCF are:
     Max number of different atomic species (ntypx) = 10
     Max number of k-points (npk) =  40000
     Max angular momentum in pseudopotentials (lmaxx) =  3
               file Mg.pbe-mt_fhi.UPF: wavefunction(s)  3p 4f renormalized
               file Ge.pbe-mt_fhi.UPF: wavefunction(s)  4d 4f renormalized
               file Si.pbe-mt_fhi.UPF: wavefunction(s)  4f renormalized

     Title:
     Mg2SiGe

     bravais-lattice index     =            0
     lattice parameter (alat)  =       8.5386  a.u.
     unit-cell volume          =     880.3780 (a.u.)^3
     number of atoms/cell      =            6
     number of atomic types    =            3
     number of electrons       =        16.00
     number of Kohn-Sham states=            8
     kinetic-energy cutoff     =      80.0000  Ry
     charge density cutoff     =     320.0000  Ry
     convergence threshold     =      1.0E-06
     mixing beta               =       0.7000
     number of iterations used =            8  plain     mixing
     Exchange-correlation      = PBE ( 1  4  3  4 0 0)
     nstep                     =           50

     celldm(1)=   8.538562  celldm(2)=   0.000000  celldm(3)=   0.000000
     celldm(4)=   0.000000  celldm(5)=   0.000000  celldm(6)=   0.000000

     crystal axes: (cart. coord. in units of alat)
               a(1) = (   1.000000   0.000000   0.000000 )
               a(2) = (   0.000000   1.000000   0.000000 )
               a(3) = (   0.000000   0.000000   1.414214 )

     reciprocal axes: (cart. coord. in units 2 pi/alat)
               b(1) = (  1.000000  0.000000  0.000000 )
               b(2) = (  0.000000  1.000000  0.000000 )
               b(3) = (  0.000000  0.000000  0.707107 )

     PseudoPot. # 1 for Mg read from file:
     /home/rajeshprashanth/pseudo/Mg.pbe-mt_fhi.UPF
     MD5 check sum: 5f317abbf1af53c7f9f9394406f46722
     Pseudo is Norm-conserving + core correction, Zval =  2.0
     Generated using FHI98PP, converted with fhi2upf.x v.5.0.2
     Using radial grid of  489 points,  3 beta functions with:
                l(1) =   0
                l(2) =   1
                l(3) =   3

     PseudoPot. # 2 for Ge read from file:
     /home/rajeshprashanth/pseudo/Ge.pbe-mt_fhi.UPF
     MD5 check sum: 5e8e3ecae5c0f32a4ca4c4ea0c54247f
     Pseudo is Norm-conserving, Zval =  4.0
     Generated using FHI98PP, converted with fhi2upf.x v.5.0.2
     Using radial grid of  529 points,  3 beta functions with:
                l(1) =   1
                l(2) =   2
                l(3) =   3

     PseudoPot. # 3 for Si read from file:
     /home/rajeshprashanth/pseudo/Si.pbe-mt_fhi.UPF
     MD5 check sum: c599308877b8fc1bd27895572194cdaa
     Pseudo is Norm-conserving, Zval =  4.0
     Generated using FHI98PP, converted with fhi2upf.x v.5.0.2
     Using radial grid of  495 points,  3 beta functions with:
                l(1) =   0
                l(2) =   1
                l(3) =   3

     atomic species   valence    mass     pseudopotential
        Mg             2.00    24.30500     Mg( 1.00)
        Ge             4.00    72.59000     Ge( 1.00)
        Si             4.00    28.08500     Si( 1.00)

     16 Sym. Ops., with inversion, found

                                    s                        frac. trans.

      isym =  1     identity

 cryst.   s( 1) = (     1          0          0      )
                  (     0          1          0      )
                  (     0          0          1      )

 cart.    s( 1) = (  1.0000000  0.0000000  0.0000000 )
                  (  0.0000000  1.0000000  0.0000000 )
                  (  0.0000000  0.0000000  1.0000000 )

      isym =  2     180 deg rotation - cart. axis [0,0,1]

[...]

      isym =  9     inversion

[...]

      isym = 10     inv. 180 deg rotation - cart. axis [0,0,1]

 cryst.   s(10) = (     1          0          0      )
                  (     0          1          0      )
                  (     0          0         -1      )

 cart.    s(10) = (  1.0000000  0.0000000  0.0000000 )
                  (  0.0000000  1.0000000  0.0000000 )
                  (  0.0000000  0.0000000 -1.0000000 )

[...]

   Cartesian axes

     site n.     atom                  positions (alat units)
         1           Si  tau(   1) = (   0.5000000   0.5000000   0.7071068  )
         2           Ge  tau(   2) = (   0.0000000   0.0000000   0.0000000  )
         3           Mg  tau(   3) = (   0.5000000   0.0000000   0.3535534  )
         4           Mg  tau(   4) = (   0.0000000   0.5000000   0.3535534  )
         5           Mg  tau(   5) = (   0.0000000   0.5000000   1.0606602  )
         6           Mg  tau(   6) = (   0.5000000   0.0000000   1.0606602  )

   Crystallographic axes

     site n.     atom                  positions (cryst. coord.)
         1           Si  tau(   1) = (  0.5000000  0.5000000  0.5000000  )
         2           Ge  tau(   2) = (  0.0000000  0.0000000  0.0000000  )
         3           Mg  tau(   3) = (  0.5000000  0.0000000  0.2500000  )
         4           Mg  tau(   4) = (  0.0000000  0.5000000  0.2500000  )
         5           Mg  tau(   5) = (  0.0000000  0.5000000  0.7500000  )
         6           Mg  tau(   6) = (  0.5000000  0.0000000  0.7500000  )

     number of k points=    45
                       cart. coord. in units 2pi/alat
        k(    1) = (   0.0000000   0.0000000   0.0000000), wk =   0.0078125
        k(    2) = (   0.0000000   0.0000000   0.1767767), wk =   0.0156250
        k(    3) = (   0.0000000   0.0000000  -0.3535534), wk =   0.0078125
        k(    4) = (   0.0000000   0.1250000   0.0000000), wk =   0.0312500
        k(    5) = (   0.0000000   0.1250000   0.1767767), wk =   0.0625000
        k(    6) = (   0.0000000   0.1250000  -0.3535534), wk =   0.0312500
        k(    7) = (   0.0000000   0.2500000   0.0000000), wk =   0.0312500
        k(    8) = (   0.0000000   0.2500000   0.1767767), wk =   0.0625000
        k(    9) = (   0.0000000   0.2500000  -0.3535534), wk =   0.0312500
        k(   10) = (   0.0000000   0.3750000   0.0000000), wk =   0.0312500
        k(   11) = (   0.0000000   0.3750000   0.1767767), wk =   0.0625000
        k(   12) = (   0.0000000   0.3750000  -0.3535534), wk =   0.0312500
        k(   13) = (   0.0000000  -0.5000000   0.0000000), wk =   0.0156250
        k(   14) = (   0.0000000  -0.5000000   0.1767767), wk =   0.0312500
        k(   15) = (   0.0000000  -0.5000000  -0.3535534), wk =   0.0156250
        k(   16) = (   0.1250000   0.1250000   0.0000000), wk =   0.0312500
        k(   17) = (   0.1250000   0.1250000   0.1767767), wk =   0.0625000
        k(   18) = (   0.1250000   0.1250000  -0.3535534), wk =   0.0312500
        k(   19) = (   0.1250000   0.2500000   0.0000000), wk =   0.0625000
        k(   20) = (   0.1250000   0.2500000   0.1767767), wk =   0.1250000
        k(   21) = (   0.1250000   0.2500000  -0.3535534), wk =   0.0625000
        k(   22) = (   0.1250000   0.3750000   0.0000000), wk =   0.0625000
        k(   23) = (   0.1250000   0.3750000   0.1767767), wk =   0.1250000
        k(   24) = (   0.1250000   0.3750000  -0.3535534), wk =   0.0625000
        k(   25) = (   0.1250000  -0.5000000   0.0000000), wk =   0.0312500
        k(   26) = (   0.1250000  -0.5000000   0.1767767), wk =   0.0625000
        k(   27) = (   0.1250000  -0.5000000  -0.3535534), wk =   0.0312500
        k(   28) = (   0.2500000   0.2500000   0.0000000), wk =   0.0312500
        k(   29) = (   0.2500000   0.2500000   0.1767767), wk =   0.0625000
        k(   30) = (   0.2500000   0.2500000  -0.3535534), wk =   0.0312500
        k(   31) = (   0.2500000   0.3750000   0.0000000), wk =   0.0625000
        k(   32) = (   0.2500000   0.3750000   0.1767767), wk =   0.1250000
        k(   33) = (   0.2500000   0.3750000  -0.3535534), wk =   0.0625000
        k(   34) = (   0.2500000  -0.5000000   0.0000000), wk =   0.0312500
        k(   35) = (   0.2500000  -0.5000000   0.1767767), wk =   0.0625000
        k(   36) = (   0.2500000  -0.5000000  -0.3535534), wk =   0.0312500
        k(   37) = (   0.3750000   0.3750000   0.0000000), wk =   0.0312500
        k(   38) = (   0.3750000   0.3750000   0.1767767), wk =   0.0625000
        k(   39) = (   0.3750000   0.3750000  -0.3535534), wk =   0.0312500
        k(   40) = (   0.3750000  -0.5000000   0.0000000), wk =   0.0312500
        k(   41) = (   0.3750000  -0.5000000   0.1767767), wk =   0.0625000
        k(   42) = (   0.3750000  -0.5000000  -0.3535534), wk =   0.0312500
        k(   43) = (  -0.5000000  -0.5000000   0.0000000), wk =   0.0078125
        k(   44) = (  -0.5000000  -0.5000000   0.1767767), wk =   0.0156250
        k(   45) = (  -0.5000000  -0.5000000  -0.3535534), wk =   0.0078125

                       cryst. coord.
        k(    1) = (   0.0000000   0.0000000   0.0000000), wk =   0.0078125
        k(    2) = (   0.0000000   0.0000000   0.2500000), wk =   0.0156250
        k(    3) = (   0.0000000   0.0000000  -0.5000000), wk =   0.0078125
        k(    4) = (   0.0000000   0.1250000   0.0000000), wk =   0.0312500
        k(    5) = (   0.0000000   0.1250000   0.2500000), wk =   0.0625000
        k(    6) = (   0.0000000   0.1250000  -0.5000000), wk =   0.0312500
        k(    7) = (   0.0000000   0.2500000   0.0000000), wk =   0.0312500
        k(    8) = (   0.0000000   0.2500000   0.2500000), wk =   0.0625000
        k(    9) = (   0.0000000   0.2500000  -0.5000000), wk =   0.0312500
        k(   10) = (   0.0000000   0.3750000   0.0000000), wk =   0.0312500
        k(   11) = (   0.0000000   0.3750000   0.2500000), wk =   0.0625000
        k(   12) = (   0.0000000   0.3750000  -0.5000000), wk =   0.0312500
        k(   13) = (   0.0000000  -0.5000000   0.0000000), wk =   0.0156250
        k(   14) = (   0.0000000  -0.5000000   0.2500000), wk =   0.0312500
        k(   15) = (   0.0000000  -0.5000000  -0.5000000), wk =   0.0156250
        k(   16) = (   0.1250000   0.1250000   0.0000000), wk =   0.0312500
        k(   17) = (   0.1250000   0.1250000   0.2500000), wk =   0.0625000
        k(   18) = (   0.1250000   0.1250000  -0.5000000), wk =   0.0312500
        k(   19) = (   0.1250000   0.2500000   0.0000000), wk =   0.0625000
        k(   20) = (   0.1250000   0.2500000   0.2500000), wk =   0.1250000
        k(   21) = (   0.1250000   0.2500000  -0.5000000), wk =   0.0625000
        k(   22) = (   0.1250000   0.3750000   0.0000000), wk =   0.0625000
        k(   23) = (   0.1250000   0.3750000   0.2500000), wk =   0.1250000
        k(   24) = (   0.1250000   0.3750000  -0.5000000), wk =   0.0625000
        k(   25) = (   0.1250000  -0.5000000   0.0000000), wk =   0.0312500
        k(   26) = (   0.1250000  -0.5000000   0.2500000), wk =   0.0625000
        k(   27) = (   0.1250000  -0.5000000  -0.5000000), wk =   0.0312500
        k(   28) = (   0.2500000   0.2500000   0.0000000), wk =   0.0312500
        k(   29) = (   0.2500000   0.2500000   0.2500000), wk =   0.0625000
        k(   30) = (   0.2500000   0.2500000  -0.5000000), wk =   0.0312500
[...]

                                    s                        frac. trans.

      isym =  1     identity

[...]

      isym =  8      90 deg rotation - cart. axis [0,0,1]

[...]

      isym =  9     inversion

 cryst.   s( 9) = (    -1          0          0      )
                  (     0         -1          0      )
                  (     0          0         -1      )

 cart.    s( 9) = ( -1.0000000  0.0000000  0.0000000 )
                  (  0.0000000 -1.0000000  0.0000000 )
                  (  0.0000000  0.0000000 -1.0000000 )

[...]

      isym = 16     inv.  90 deg rotation - cart. axis [0,0,1]

 cryst.   s(16) = (     0         -1          0      )
                  (     1          0          0      )
                  (     0          0         -1      )

 cart.    s(16) = (  0.0000000  1.0000000  0.0000000 )
                  ( -1.0000000  0.0000000  0.0000000 )
                  (  0.0000000  0.0000000 -1.0000000 )

   Cartesian axes

     site n.     atom                  positions (alat units)
         1           Si  tau(   1) = (   0.4996063   0.4996063   0.7064254  )
         2           Ge  tau(   2) = (   0.0000000   0.0000000   0.0000000  )
         3           Mg  tau(   3) = (   0.4996063   0.0000000   0.3555420  )
         4           Mg  tau(   4) = (   0.0000000   0.4996063   0.3555420  )
         5           Mg  tau(   5) = (   0.0000000   0.4996063   1.0573089  )
         6           Mg  tau(   6) = (   0.4996063   0.0000000   1.0573089  )

   Crystallographic axes

     site n.     atom                  positions (cryst. coord.)
         1           Si  tau(   1) = (  0.5000000  0.5000000  0.5000000  )
         2           Ge  tau(   2) = (  0.0000000  0.0000000  0.0000000  )
         3           Mg  tau(   3) = (  0.5000000  0.0000000  0.2516486  )
         4           Mg  tau(   4) = (  0.0000000  0.5000000  0.2516486  )
         5           Mg  tau(   5) = (  0.0000000  0.5000000  0.7483514  )
         6           Mg  tau(   6) = (  0.5000000  0.0000000  0.7483514  )

     number of k points=    45
                       cart. coord. in units 2pi/alat
        k(    1) = (   0.0000000   0.0000000   0.0000000), wk =   0.0078125
        k(    2) = (   0.0000000   0.0000000   0.1769472), wk =   0.0156250
        k(    3) = (   0.0000000   0.0000000  -0.3538944), wk =   0.0078125
        k(    4) = (   0.0000000   0.1250985   0.0000000), wk =   0.0312500
        k(    5) = (   0.0000000   0.1250985   0.1769472), wk =   0.0625000
        k(    6) = (   0.0000000   0.1250985  -0.3538944), wk =   0.0312500
        k(    7) = (   0.0000000   0.2501970   0.0000000), wk =   0.0312500
        k(    8) = (   0.0000000   0.2501970   0.1769472), wk =   0.0625000
        k(    9) = (   0.0000000   0.2501970  -0.3538944), wk =   0.0312500
        k(   10) = (   0.0000000   0.3752955   0.0000000), wk =   0.0312500
        k(   11) = (   0.0000000   0.3752955   0.1769472), wk =   0.0625000
        k(   12) = (   0.0000000   0.3752955  -0.3538944), wk =   0.0312500
        k(   13) = (   0.0000000  -0.5003941   0.0000000), wk =   0.0156250
        k(   14) = (   0.0000000  -0.5003941   0.1769472), wk =   0.0312500
        k(   15) = (   0.0000000  -0.5003941  -0.3538944), wk =   0.0156250
        k(   16) = (   0.1250985   0.1250985   0.0000000), wk =   0.0312500
        k(   17) = (   0.1250985   0.1250985   0.1769472), wk =   0.0625000
        k(   18) = (   0.1250985   0.1250985  -0.3538944), wk =   0.0312500
        k(   19) = (   0.1250985   0.2501970   0.0000000), wk =   0.0625000
        k(   20) = (   0.1250985   0.2501970   0.1769472), wk =   0.1250000
        k(   21) = (   0.1250985   0.2501970  -0.3538944), wk =   0.0625000
        k(   22) = (   0.1250985   0.3752955   0.0000000), wk =   0.0625000
        k(   23) = (   0.1250985   0.3752955   0.1769472), wk =   0.1250000
        k(   24) = (   0.1250985   0.3752955  -0.3538944), wk =   0.0625000
        k(   25) = (   0.1250985  -0.5003941   0.0000000), wk =   0.0312500
        k(   26) = (   0.1250985  -0.5003941   0.1769472), wk =   0.0625000
        k(   27) = (   0.1250985  -0.5003941  -0.3538944), wk =   0.0312500
        k(   28) = (   0.2501970   0.2501970   0.0000000), wk =   0.0312500
        k(   29) = (   0.2501970   0.2501970   0.1769472), wk =   0.0625000
        k(   30) = (   0.2501970   0.2501970  -0.3538944), wk =   0.0312500
        k(   31) = (   0.2501970   0.3752955   0.0000000), wk =   0.0625000
        k(   32) = (   0.2501970   0.3752955   0.1769472), wk =   0.1250000
        k(   33) = (   0.2501970   0.3752955  -0.3538944), wk =   0.0625000
        k(   34) = (   0.2501970  -0.5003941   0.0000000), wk =   0.0312500
        k(   35) = (   0.2501970  -0.5003941   0.1769472), wk =   0.0625000
        k(   36) = (   0.2501970  -0.5003941  -0.3538944), wk =   0.0312500
        k(   37) = (   0.3752955   0.3752955   0.0000000), wk =   0.0312500
        k(   38) = (   0.3752955   0.3752955   0.1769472), wk =   0.0625000
        k(   39) = (   0.3752955   0.3752955  -0.3538944), wk =   0.0312500
        k(   40) = (   0.3752955  -0.5003941   0.0000000), wk =   0.0312500
        k(   41) = (   0.3752955  -0.5003941   0.1769472), wk =   0.0625000
        k(   42) = (   0.3752955  -0.5003941  -0.3538944), wk =   0.0312500
        k(   43) = (  -0.5003941  -0.5003941   0.0000000), wk =   0.0078125
        k(   44) = (  -0.5003941  -0.5003941   0.1769472), wk =   0.0156250
        k(   45) = (  -0.5003941  -0.5003941  -0.3538944), wk =   0.0078125

                       cryst. coord.
        k(    1) = (   0.0000000   0.0000000   0.0000000), wk =   0.0078125
        k(    2) = (   0.0000000   0.0000000   0.2500000), wk =   0.0156250
        k(    3) = (   0.0000000   0.0000000  -0.5000000), wk =   0.0078125
        k(    4) = (   0.0000000   0.1250000   0.0000000), wk =   0.0312500
        k(    5) = (   0.0000000   0.1250000   0.2500000), wk =   0.0625000
        k(    6) = (   0.0000000   0.1250000  -0.5000000), wk =   0.0312500
        k(    7) = (   0.0000000   0.2500000   0.0000000), wk =   0.0312500
        k(    8) = (   0.0000000   0.2500000   0.2500000), wk =   0.0625000
        k(    9) = (   0.0000000   0.2500000  -0.5000000), wk =   0.0312500
        k(   10) = (   0.0000000   0.3750000   0.0000000), wk =   0.0312500
        k(   11) = (   0.0000000   0.3750000   0.2500000), wk =   0.0625000
        k(   12) = (   0.0000000   0.3750000  -0.5000000), wk =   0.0312500
        k(   13) = (   0.0000000  -0.5000000   0.0000000), wk =   0.0156250
        k(   14) = (   0.0000000  -0.5000000   0.2500000), wk =   0.0312500
        k(   15) = (   0.0000000  -0.5000000  -0.5000000), wk =   0.0156250
        k(   16) = (   0.1250000   0.1250000   0.0000000), wk =   0.0312500
        k(   17) = (   0.1250000   0.1250000   0.2500000), wk =   0.0625000
        k(   18) = (   0.1250000   0.1250000  -0.5000000), wk =   0.0312500
        k(   19) = (   0.1250000   0.2500000   0.0000000), wk =   0.0625000
        k(   20) = (   0.1250000   0.2500000   0.2500000), wk =   0.1250000
        k(   21) = (   0.1250000   0.2500000  -0.5000000), wk =   0.0625000
        k(   22) = (   0.1250000   0.3750000   0.0000000), wk =   0.0625000
        k(   23) = (   0.1250000   0.3750000   0.2500000), wk =   0.1250000
        k(   24) = (   0.1250000   0.3750000  -0.5000000), wk =   0.0625000
        k(   25) = (   0.1250000  -0.5000000   0.0000000), wk =   0.0312500
        k(   26) = (   0.1250000  -0.5000000   0.2500000), wk =   0.0625000
        k(   27) = (   0.1250000  -0.5000000  -0.5000000), wk =   0.0312500
        k(   28) = (   0.2500000   0.2500000   0.0000000), wk =   0.0312500
        k(   29) = (   0.2500000   0.2500000   0.2500000), wk =   0.0625000
        k(   30) = (   0.2500000   0.2500000  -0.5000000), wk =   0.0312500
        k(   31) = (   0.2500000   0.3750000   0.0000000), wk =   0.0625000
        k(   32) = (   0.2500000   0.3750000   0.2500000), wk =   0.1250000
        k(   33) = (   0.2500000   0.3750000  -0.5000000), wk =   0.0625000
        k(   34) = (   0.2500000  -0.5000000   0.0000000), wk =   0.0312500
        k(   35) = (   0.2500000  -0.5000000   0.2500000), wk =   0.0625000
        k(   36) = (   0.2500000  -0.5000000  -0.5000000), wk =   0.0312500
        k(   37) = (   0.3750000   0.3750000   0.0000000), wk =   0.0312500
        k(   38) = (   0.3750000   0.3750000   0.2500000), wk =   0.0625000
        k(   39) = (   0.3750000   0.3750000  -0.5000000), wk =   0.0312500
        k(   40) = (   0.3750000  -0.5000000   0.0000000), wk =   0.0312500
        k(   41) = (   0.3750000  -0.5000000   0.2500000), wk =   0.0625000
        k(   42) = (   0.3750000  -0.5000000  -0.5000000), wk =   0.0312500
        k(   43) = (  -0.5000000  -0.5000000   0.0000000), wk =   0.0078125
        k(   44) = (  -0.5000000  -0.5000000   0.2500000), wk =   0.0156250
        k(   45) = (  -0.5000000  -0.5000000  -0.5000000), wk =   0.0078125

     Initial potential from superposition of free atoms

     starting charge   15.99498, renormalised to   16.00000
     Starting wfcs are   96 randomized atomic wfcs

     Self-consistent Calculation

[...]

     total energy              =     -27.33302667 Ry
     Harris-Foulkes estimate   =     -27.33302668 Ry
     estimated scf accuracy    <       0.00000003 Ry

     iteration #  9     ecut=    80.00 Ry     beta= 0.70
     CG style diagonalization
     ethr =  1.69E-10,  avg # of iterations =  4.6

     End of self-consistent calculation

[...]

          k = 0.3753-0.5004-0.3539 ( 10576 PWs)   bands (ev):

[...]

          k =-0.5004-0.5004-0.3539 ( 10536 PWs)   bands (ev):

    -3.5173  -2.7297   0.7653   0.7653   0.8220   0.8220   1.7433   1.7646

     occupation numbers
     1.0000   1.0000   1.0000   1.0000   1.0000   1.0000   1.0000   1.0000

     highest occupied level (ev):     4.4261

!    total energy              =     -27.33302668 Ry
     Harris-Foulkes estimate   =     -27.33302669 Ry
     estimated scf accuracy    <          5.6E-09 Ry

     The total energy is the sum of the following terms:

     one-electron contribution =       7.32753710 Ry
     hartree contribution      =       2.18755269 Ry
     xc contribution           =     -12.90915529 Ry
     ewald contribution        =     -23.93896118 Ry

     convergence has been achieved in   9 iterations

     Forces acting on atoms (cartesian axes, Ry/au):

     atom    1 type  3   force =     0.00000000    0.00000000    0.00000000
     atom    2 type  2   force =     0.00000000    0.00000000    0.00000000
     atom    3 type  1   force =     0.00000000    0.00000000   -0.00000513
     atom    4 type  1   force =     0.00000000    0.00000000   -0.00000513
     atom    5 type  1   force =     0.00000000    0.00000000    0.00000513
     atom    6 type  1   force =     0.00000000    0.00000000    0.00000513
     The non-local contrib.  to forces
     atom    1 type  3   force =     0.00000000    0.00000000    0.00000000
     atom    2 type  2   force =     0.00000000    0.00000000    0.00000000
     atom    3 type  1   force =     0.00000000    0.00000000   -0.00252103
     atom    4 type  1   force =     0.00000000    0.00000000   -0.00252103
     atom    5 type  1   force =     0.00000000    0.00000000    0.00252103
     atom    6 type  1   force =     0.00000000    0.00000000    0.00252103
     The ionic contribution  to forces
     atom    1 type  3   force =     0.00000000    0.00000000    0.00000000
     atom    2 type  2   force =    -0.00000000   -0.00000000   -0.00000000
     atom    3 type  1   force =     0.00000000   -0.00000000   -0.01309214
     atom    4 type  1   force =    -0.00000000    0.00000000   -0.01309214
     atom    5 type  1   force =    -0.00000000    0.00000000    0.01309214
     atom    6 type  1   force =     0.00000000   -0.00000000    0.01309214
     The local contribution  to forces
     atom    1 type  3   force =    -0.00000000   -0.00000000   -0.00000000
     atom    2 type  2   force =    -0.00000000    0.00000000    0.00000000
     atom    3 type  1   force =    -0.00000000    0.00000000    0.01528367
     atom    4 type  1   force =     0.00000000   -0.00000000    0.01528367
     atom    5 type  1   force =     0.00000000   -0.00000000   -0.01528367
     atom    6 type  1   force =    -0.00000000   -0.00000000   -0.01528367
     The core correction contribution to forces
     atom    1 type  3   force =     0.00000000    0.00000000    0.00000000
     atom    2 type  2   force =     0.00000000    0.00000000    0.00000000
     atom    3 type  1   force =    -0.00000000   -0.00000000    0.00032236
     atom    4 type  1   force =     0.00000000   -0.00000000    0.00032236
     atom    5 type  1   force =     0.00000000   -0.00000000   -0.00032236
     atom    6 type  1   force =    -0.00000000   -0.00000000   -0.00032236
     The Hubbard contrib.    to forces
     atom    1 type  3   force =     0.00000000    0.00000000    0.00000000
     atom    2 type  2   force =     0.00000000    0.00000000    0.00000000
     atom    3 type  1   force =     0.00000000    0.00000000    0.00000000
     atom    4 type  1   force =     0.00000000    0.00000000    0.00000000
     atom    5 type  1   force =     0.00000000    0.00000000    0.00000000
     atom    6 type  1   force =     0.00000000    0.00000000    0.00000000
     The SCF correction term to forces
     atom    1 type  3   force =    -0.00000000   -0.00000000   -0.00000000
     atom    2 type  2   force =     0.00000000   -0.00000000    0.00000000
     atom    3 type  1   force =    -0.00000000   -0.00000000    0.00000201
     atom    4 type  1   force =     0.00000000    0.00000000    0.00000201
     atom    5 type  1   force =     0.00000000    0.00000000   -0.00000201
     atom    6 type  1   force =    -0.00000000   -0.00000000   -0.00000201

     Total force =     0.000010     Total SCF correction =     0.000004
     SCF correction compared to forces is large: reduce conv_thr to get better values

     Computing stress (Cartesian axis) and pressure

          total   stress  (Ry/bohr**3)                   (kbar)     P=   -0.03
  -0.00000025   0.00000000   0.00000000         -0.04      0.00      0.00
   0.00000000  -0.00000025   0.00000000          0.00     -0.04      0.00
   0.00000000   0.00000000  -0.00000016          0.00      0.00     -0.02

     kinetic stress (kbar)    988.45      0.00      0.00
                                0.00    988.45      0.00
                                0.00      0.00    988.06

     local   stress (kbar)    -76.34     -0.00     -0.00
                               -0.00    -76.34     -0.00
                               -0.00     -0.00    -75.06

     nonloc. stress (kbar)    779.44      0.00      0.00
                                0.00    779.44      0.00
                                0.00      0.00    779.10

     hartree stress (kbar)    122.21      0.00     -0.00
                                0.00    122.21     -0.00
                               -0.00     -0.00    122.03

     exc-cor stress (kbar)    295.94     -0.00      0.00
                               -0.00    295.94      0.00
                                0.00      0.00    295.93

     corecor stress (kbar)   -773.13     -0.00     -0.00
                               -0.00   -773.13     -0.00
                               -0.00      0.00   -773.10

     ewald   stress (kbar)  -1336.61     -0.00      0.00
                               -0.00  -1336.61      0.00
                                0.00      0.00  -1336.99

     hubbard stress (kbar)      0.00      0.00      0.00
                                0.00      0.00      0.00
                                0.00      0.00      0.00

     london  stress (kbar)      0.00      0.00      0.00
                                0.00      0.00      0.00
                                0.00      0.00      0.00

     DFT-D3  stress (kbar)      0.00      0.00      0.00
                                0.00      0.00      0.00
                                0.00      0.00      0.00

     XDM     stress (kbar)      0.00      0.00      0.00
                                0.00      0.00      0.00
                                0.00      0.00      0.00

     dft-nl  stress (kbar)      0.00      0.00      0.00
                                0.00      0.00      0.00
                                0.00      0.00      0.00

     TS-vdW  stress (kbar)      0.00      0.00      0.00
                                0.00      0.00      0.00
                                0.00      0.00      0.00

     Writing output data file pwscf.save/

     General routines

   This run was terminated on:  12:21:47  24Jul2018

   JOB DONE.